
n_res = 6;
rcap = [50, 46, 50, 49, 1569, 1459];
rtype = [1, 1, 1, 1, 2, 2];
n_tasks = 100;
modes =  [{1, 2, 3, 4, 5, 6}, {7, 8, 9, 10, 11, 12}, {13, 14, 15, 16, 17, 18}, {19, 20, 21, 22, 23, 24}, {25, 26, 27, 28, 29, 30}, {31, 32, 33, 34, 35, 36}, {37, 38, 39, 40, 41, 42}, {43, 44, 45, 46, 47, 48}, {49, 50, 51, 52, 53, 54}, {55, 56, 57, 58, 59, 60}, {61, 62, 63, 64, 65, 66}, {67, 68, 69, 70, 71, 72}, {73, 74, 75, 76, 77, 78}, {79, 80, 81, 82, 83, 84}, {85, 86, 87, 88, 89, 90}, {91, 92, 93, 94, 95, 96}, {97, 98, 99, 100, 101, 102}, {103, 104, 105, 106, 107, 108}, {109, 110, 111, 112, 113, 114}, {115, 116, 117, 118, 119, 120}, {121, 122, 123, 124, 125, 126}, {127, 128, 129, 130, 131, 132}, {133, 134, 135, 136, 137, 138}, {139, 140, 141, 142, 143, 144}, {145, 146, 147, 148, 149, 150}, {151, 152, 153, 154, 155, 156}, {157, 158, 159, 160, 161, 162}, {163, 164, 165, 166, 167, 168}, {169, 170, 171, 172, 173, 174}, {175, 176, 177, 178, 179, 180}, {181, 182, 183, 184, 185, 186}, {187, 188, 189, 190, 191, 192}, {193, 194, 195, 196, 197, 198}, {199, 200, 201, 202, 203, 204}, {205, 206, 207, 208, 209, 210}, {211, 212, 213, 214, 215, 216}, {217, 218, 219, 220, 221, 222}, {223, 224, 225, 226, 227, 228}, {229, 230, 231, 232, 233, 234}, {235, 236, 237, 238, 239, 240}, {241, 242, 243, 244, 245, 246}, {247, 248, 249, 250, 251, 252}, {253, 254, 255, 256, 257, 258}, {259, 260, 261, 262, 263, 264}, {265, 266, 267, 268, 269, 270}, {271, 272, 273, 274, 275, 276}, {277, 278, 279, 280, 281, 282}, {283, 284, 285, 286, 287, 288}, {289, 290, 291, 292, 293, 294}, {295, 296, 297, 298, 299, 300}, {301, 302, 303, 304, 305, 306}, {307, 308, 309, 310, 311, 312}, {313, 314, 315, 316, 317, 318}, {319, 320, 321, 322, 323, 324}, {325, 326, 327, 328, 329, 330}, {331, 332, 333, 334, 335, 336}, {337, 338, 339, 340, 341, 342}, {343, 344, 345, 346, 347, 348}, {349, 350, 351, 352, 353, 354}, {355, 356, 357, 358, 359, 360}, {361, 362, 363, 364, 365, 366}, {367, 368, 369, 370, 371, 372}, {373, 374, 375, 376, 377, 378}, {379, 380, 381, 382, 383, 384}, {385, 386, 387, 388, 389, 390}, {391, 392, 393, 394, 395, 396}, {397, 398, 399, 400, 401, 402}, {403, 404, 405, 406, 407, 408}, {409, 410, 411, 412, 413, 414}, {415, 416, 417, 418, 419, 420}, {421, 422, 423, 424, 425, 426}, {427, 428, 429, 430, 431, 432}, {433, 434, 435, 436, 437, 438}, {439, 440, 441, 442, 443, 444}, {445, 446, 447, 448, 449, 450}, {451, 452, 453, 454, 455, 456}, {457, 458, 459, 460, 461, 462}, {463, 464, 465, 466, 467, 468}, {469, 470, 471, 472, 473, 474}, {475, 476, 477, 478, 479, 480}, {481, 482, 483, 484, 485, 486}, {487, 488, 489, 490, 491, 492}, {493, 494, 495, 496, 497, 498}, {499, 500, 501, 502, 503, 504}, {505, 506, 507, 508, 509, 510}, {511, 512, 513, 514, 515, 516}, {517, 518, 519, 520, 521, 522}, {523, 524, 525, 526, 527, 528}, {529, 530, 531, 532, 533, 534}, {535, 536, 537, 538, 539, 540}, {541, 542, 543, 544, 545, 546}, {547, 548, 549, 550, 551, 552}, {553, 554, 555, 556, 557, 558}, {559, 560, 561, 562, 563, 564}, {565, 566, 567, 568, 569, 570}, {571, 572, 573, 574, 575, 576}, {577, 578, 579, 580, 581, 582}, {583, 584, 585, 586, 587, 588}, {589, 590, 591, 592, 593, 594}, {595, 596, 597, 598, 599, 600}];
succ =  [{50, 46, 42, 40, 37, 35, 32, 31, 29, 27, 26, 11}, {50, 42, 40, 38, 36, 35, 26, 9}, {50, 46, 44, 42, 37, 35, 30, 19, 11}, {51, 50, 46, 42, 41, 40, 34, 29, 28, 27, 25, 21}, {51, 40, 37, 35, 29, 25, 21, 14}, {51, 50, 46, 41, 39, 38, 37, 34, 29, 27, 26}, {52, 50, 46, 45, 42, 41, 40, 38, 37, 35, 25, 21}, {51, 50, 43, 42, 37, 35, 34, 33, 31, 27, 23}, {57, 45, 41, 39, 37, 34, 32, 30, 27}, {52, 50, 41, 29, 25, 21}, {54, 52, 51, 45, 41, 25, 21}, {58, 54, 47, 45, 43, 39, 22}, {62, 60, 57, 55, 52, 50, 45, 44, 41, 38, 28}, {66, 56, 48, 46, 45, 44, 41, 38, 34, 33}, {83, 57, 56, 52, 51, 47, 43, 42, 33, 28}, {62, 56, 55, 47, 45, 44, 42, 38, 36, 31}, {70, 69, 58, 56, 55, 53, 52, 42, 33, 29}, {58, 56, 55, 53, 50, 47, 39, 33, 29}, {83, 62, 57, 56, 53, 51, 38, 28}, {57, 39, 38, 23}, {83, 66, 58, 57, 53, 48, 47, 43, 39, 33}, {70, 66, 65, 57, 56, 52, 44, 41, 33}, {100, 74, 72, 70, 66, 63, 62, 59, 56, 54, 53, 47, 46, 44}, {83, 75, 70, 69, 67, 62, 61, 56, 55, 54, 45, 43, 42}, {62, 60, 58, 57, 56, 49, 48, 47, 43, 39}, {65, 57, 52, 48, 44, 33}, {100, 72, 70, 62, 60, 59, 58, 56, 54, 52, 48, 47}, {98, 78, 75, 74, 66, 65, 59, 58, 54, 48, 39}, {63, 62, 54, 48, 45, 44, 43}, {69, 66, 63, 62, 61, 60, 58, 53, 52, 43}, {100, 99, 96, 82, 78, 75, 74, 72, 69, 65, 60, 57, 48}, {99, 83, 82, 81, 76, 75, 73, 69, 63, 56, 51, 49}, {99, 82, 78, 77, 76, 75, 73, 67, 62, 60, 49}, {98, 83, 76, 75, 71, 70, 69, 68, 67, 64, 63, 62, 55}, {99, 73, 70, 67, 64, 63, 60, 55, 53}, {82, 81, 74, 70, 68, 67, 61, 59, 58, 53}, {100, 99, 98, 96, 82, 75, 72, 68, 66, 65, 63, 62, 61}, {98, 97, 78, 72, 68, 65, 64, 63, 58, 54}, {100, 82, 81, 73, 72, 71, 70, 69, 68, 67, 64, 63}, {100, 98, 97, 96, 95, 94, 83, 77, 75, 71, 68, 67, 64, 62}, {100, 99, 81, 77, 68, 67, 61, 53}, {99, 97, 96, 93, 81, 79, 78, 72, 66, 65, 64, 63}, {99, 98, 96, 95, 82, 81, 76, 72, 71, 68, 64, 59}, {99, 97, 94, 83, 82, 81, 78, 77, 68, 67, 61}, {100, 99, 96, 77, 74, 73, 68, 65, 59}, {98, 97, 96, 94, 91, 81, 80, 78, 73, 71, 68, 67}, {98, 96, 93, 92, 82, 79, 78, 69, 65, 64}, {97, 94, 93, 89, 81, 79, 77, 76, 73, 71, 61}, {100, 97, 96, 95, 74, 72, 71, 64, 59}, {99, 98, 96, 95, 94, 92, 90, 78, 76, 72, 69, 68}, {98, 97, 96, 92, 91, 80, 79, 77, 72, 60}, {78, 76, 75, 73, 68, 67, 64}, {98, 97, 94, 91, 90, 89, 88, 87, 78, 75}, {99, 95, 93, 92, 91, 89, 82, 81, 80, 76}, {100, 96, 95, 94, 93, 87, 86, 82, 79, 74}, {97, 96, 94, 92, 87, 85, 79, 64}, {98, 93, 91, 79, 76, 63}, {96, 95, 94, 89, 86, 79, 76, 71}, {94, 93, 91, 89, 87, 86, 85, 80, 79}, {94, 90, 88, 85, 68}, {95, 87, 64}, {91, 90, 86, 85, 84, 81}, {92, 90, 89, 85, 77}, {91, 88, 86, 84, 80}, {95, 94, 87, 76}, {94, 91, 86, 85, 84}, {89, 88, 87, 79}, {93, 89, 87, 84}, {97, 89, 86, 84}, {96, 93, 89, 84}, {87, 85, 84}, {87, 86, 84}, {95, 92, 85}, {92, 88, 85}, {92, 79}, {88, 85}, {86, 84}, {86, 85}, {84}, {90}, {87}, {84}, {86}, {}, {}, {}, {}, {}, {}, {}, {}, {}, {}, {}, {}, {}, {}, {}, {}, {}];
n_opt = 600;
dur = [7, 8, 9, 19, 20, 27, 7, 18, 20, 22, 28, 29, 3, 4, 6, 10, 15, 22, 3, 11, 15, 17, 28, 29, 2, 11, 15, 25, 26, 30, 5, 10, 11, 12, 27, 29, 5, 6, 12, 23, 26, 28, 8, 16, 22, 24, 25, 28, 1, 12, 14, 15, 16, 27, 4, 14, 23, 24, 28, 29, 2, 3, 15, 21, 24, 29, 6, 9, 19, 20, 23, 29, 5, 6, 9, 11, 16, 17, 4, 5, 6, 8, 9, 15, 1, 7, 9, 10, 12, 26, 3, 4, 6, 7, 8, 17, 6, 8, 12, 21, 22, 24, 3, 6, 20, 26, 27, 29, 7, 11, 12, 19, 23, 24, 8, 17, 20, 25, 28, 29, 3, 5, 11, 17, 19, 27, 2, 3, 4, 12, 17, 26, 3, 9, 16, 17, 22, 23, 3, 6, 7, 9, 23, 30, 7, 8, 10, 20, 23, 27, 10, 12, 17, 21, 26, 30, 4, 6, 15, 19, 27, 30, 3, 7, 12, 20, 25, 26, 3, 4, 8, 17, 20, 26, 3, 7, 8, 11, 13, 23, 2, 3, 9, 14, 17, 28, 7, 8, 14, 25, 28, 29, 2, 5, 9, 21, 27, 28, 1, 14, 15, 20, 21, 26, 5, 12, 15, 21, 23, 29, 5, 11, 19, 21, 25, 26, 6, 9, 17, 21, 22, 28, 8, 21, 27, 28, 29, 30, 7, 12, 13, 15, 19, 26, 2, 7, 15, 16, 17, 28, 6, 7, 8, 14, 27, 30, 13, 14, 15, 17, 22, 26, 5, 9, 16, 20, 25, 26, 8, 19, 21, 27, 28, 30, 5, 6, 12, 19, 23, 24, 1, 6, 19, 23, 24, 27, 1, 6, 7, 13, 18, 29, 5, 9, 18, 23, 28, 29, 4, 14, 15, 19, 24, 28, 11, 12, 15, 18, 23, 30, 1, 2, 6, 23, 26, 30, 2, 10, 13, 15, 16, 18, 1, 8, 11, 17, 22, 26, 1, 4, 10, 11, 14, 24, 5, 7, 17, 20, 21, 23, 5, 6, 11, 20, 26, 30, 4, 10, 24, 25, 29, 30, 2, 3, 4, 11, 13, 22, 16, 18, 19, 22, 28, 29, 6, 14, 19, 20, 26, 30, 2, 13, 14, 18, 19, 22, 3, 10, 12, 15, 19, 24, 3, 5, 12, 16, 18, 24, 11, 12, 18, 22, 23, 24, 2, 5, 6, 8, 19, 26, 7, 15, 16, 20, 21, 30, 7, 8, 9, 25, 26, 30, 2, 7, 11, 13, 14, 29, 2, 3, 6, 9, 21, 27, 10, 11, 12, 13, 14, 18, 1, 2, 5, 10, 12, 28, 7, 8, 13, 16, 22, 25, 10, 12, 13, 16, 20, 22, 4, 6, 20, 21, 22, 26, 2, 4, 25, 28, 29, 30, 6, 7, 9, 17, 25, 29, 2, 5, 6, 14, 16, 28, 7, 8, 9, 25, 26, 29, 4, 7, 14, 23, 24, 29, 4, 6, 15, 16, 22, 26, 2, 3, 4, 11, 12, 14, 4, 5, 8, 14, 15, 22, 5, 16, 24, 25, 26, 29, 2, 3, 4, 21, 22, 26, 8, 9, 10, 25, 26, 27, 1, 4, 15, 19, 21, 22, 3, 4, 5, 21, 25, 27, 9, 10, 16, 18, 23, 28, 2, 6, 11, 15, 17, 23, 3, 8, 9, 15, 17, 27, 9, 12, 14, 22, 23, 30, 1, 3, 6, 11, 22, 30, 2, 7, 10, 14, 22, 27, 8, 16, 17, 19, 21, 30, 4, 13, 15, 20, 21, 26, 8, 9, 18, 26, 28, 30, 6, 11, 15, 18, 19, 28, 1, 3, 17, 23, 24, 25, 2, 5, 9, 10, 19, 21, 3, 12, 16, 17, 25, 26];
rreq = [|4, 4, 4, 3, 3, 3, 4, 3, 2, 2, 2, 1, 5, 4, 3, 3, 2, 1, 4, 3, 3, 3, 3, 3, 3, 3, 2, 2, 2, 1, 4, 4, 4, 3, 3, 3, 2, 1, 1, 1, 1, 1, 4, 3, 3, 3, 3, 3, 3, 3, 3, 3, 3, 3, 3, 2, 2, 2, 2, 2, 1, 1, 1, 1, 1, 1, 4, 3, 3, 3, 2, 2, 5, 4, 4, 3, 3, 2, 4, 3, 3, 2, 1, 1, 3, 3, 3, 2, 1, 1, 4, 4, 3, 2, 2, 1, 3, 3, 3, 3, 2, 2, 2, 2, 2, 2, 2, 2, 2, 2, 2, 2, 2, 2, 5, 4, 4, 4, 3, 3, 3, 3, 3, 3, 3, 3, 4, 3, 3, 3, 3, 3, 2, 2, 2, 2, 2, 2, 3, 3, 3, 3, 3, 3, 5, 5, 5, 5, 5, 5, 2, 2, 2, 2, 2, 2, 5, 4, 3, 3, 3, 2, 5, 4, 4, 4, 4, 4, 5, 4, 3, 3, 1, 1, 4, 4, 4, 4, 4, 4, 3, 3, 3, 3, 3, 3, 2, 1, 1, 1, 1, 1, 4, 3, 3, 2, 2, 2, 3, 3, 3, 3, 3, 3, 5, 4, 4, 3, 3, 2, 4, 3, 3, 2, 2, 2, 3, 3, 2, 2, 1, 1, 3, 3, 3, 3, 3, 3, 3, 3, 3, 3, 3, 3, 3, 3, 3, 3, 2, 2, 5, 5, 5, 5, 5, 5, 4, 3, 3, 3, 3, 3, 5, 4, 3, 2, 2, 1, 4, 3, 3, 3, 2, 2, 2, 2, 2, 2, 1, 1, 2, 2, 2, 2, 2, 2, 5, 4, 3, 3, 1, 1, 3, 3, 2, 2, 2, 1, 3, 3, 3, 3, 3, 3, 5, 4, 4, 4, 4, 4, 4, 4, 3, 2, 1, 1, 4, 3, 3, 3, 3, 3, 3, 2, 2, 1, 1, 1, 5, 4, 4, 4, 3, 3, 5, 4, 4, 3, 3, 2, 1, 1, 1, 1, 1, 1, 5, 4, 3, 3, 2, 1, 5, 4, 4, 3, 3, 3, 2, 2, 2, 2, 2, 2, 4, 3, 3, 3, 2, 2, 4, 3, 3, 3, 2, 2, 4, 3, 3, 3, 3, 3, 1, 1, 1, 1, 1, 1, 5, 4, 4, 3, 3, 2, 4, 4, 4, 4, 4, 4, 4, 4, 4, 4, 4, 4, 2, 2, 2, 2, 2, 2, 4, 4, 4, 3, 3, 3, 5, 3, 3, 2, 2, 1, 4, 4, 3, 2, 2, 1, 4, 4, 4, 3, 2, 2, 3, 2, 2, 1, 1, 1, 1, 1, 1, 1, 1, 1, 2, 2, 2, 2, 2, 2, 3, 3, 3, 3, 3, 3, 4, 3, 3, 2, 2, 1, 1, 1, 1, 1, 1, 1, 4, 4, 4, 4, 4, 4, 3, 3, 3, 3, 3, 3, 4, 4, 4, 3, 3, 2, 3, 3, 3, 3, 2, 2, 3, 2, 2, 2, 2, 2, 3, 3, 2, 2, 1, 1, 4, 4, 3, 3, 2, 2, 2, 2, 2, 1, 1, 1, 2, 1, 1, 1, 1, 1, 4, 4, 4, 3, 3, 3, 4, 3, 3, 2, 2, 1, 3, 3, 3, 3, 3, 3, 2, 1, 1, 1, 1, 1, 4, 3, 3, 3, 3, 3, 2, 1, 1, 1, 1, 1, 4, 4, 4, 4, 4, 4, 3, 3, 2, 2, 1, 1, 5, 4, 3, 3, 3, 2, 1, 1, 1, 1, 1, 1, 4, 3, 3, 3, 3, 3, 2, 2, 2, 2, 2, 2, 4, 4, 4, 4, 4, 4, 3, 2, 2, 2, 1, 1
 |2, 2, 2, 2, 2, 2, 3, 3, 2, 2, 2, 1, 1, 1, 1, 1, 1, 1, 4, 4, 4, 4, 4, 4, 4, 4, 4, 3, 3, 3, 1, 1, 1, 1, 1, 1, 3, 2, 2, 2, 2, 2, 4, 4, 4, 3, 3, 3, 3, 3, 3, 2, 2, 2, 4, 4, 4, 4, 4, 4, 4, 4, 4, 4, 4, 4, 4, 4, 4, 3, 3, 2, 4, 3, 2, 2, 1, 1, 4, 4, 4, 4, 3, 3, 4, 4, 4, 4, 4, 4, 4, 3, 3, 3, 3, 3, 3, 3, 3, 3, 3, 3, 4, 3, 2, 2, 1, 1, 4, 4, 3, 3, 2, 2, 3, 2, 2, 2, 1, 1, 4, 3, 3, 3, 2, 2, 3, 3, 3, 3, 3, 3, 3, 3, 3, 3, 2, 2, 3, 2, 2, 1, 1, 1, 4, 4, 4, 3, 3, 3, 5, 4, 3, 2, 1, 1, 4, 3, 3, 2, 2, 2, 4, 4, 4, 3, 3, 3, 3, 3, 3, 3, 3, 3, 1, 1, 1, 1, 1, 1, 4, 4, 3, 3, 3, 2, 2, 2, 2, 2, 2, 2, 3, 3, 3, 3, 3, 3, 4, 4, 4, 4, 4, 4, 2, 2, 2, 2, 2, 2, 4, 4, 3, 2, 2, 1, 4, 3, 3, 3, 1, 1, 3, 3, 3, 3, 3, 3, 4, 3, 3, 3, 1, 1, 3, 3, 2, 2, 1, 1, 5, 4, 3, 2, 2, 1, 3, 2, 2, 2, 1, 1, 4, 4, 4, 4, 4, 4, 5, 5, 5, 5, 5, 5, 4, 4, 3, 3, 1, 1, 5, 5, 5, 5, 5, 5, 4, 4, 4, 4, 3, 3, 3, 2, 2, 2, 2, 2, 4, 4, 4, 4, 4, 4, 5, 4, 4, 4, 3, 3, 3, 2, 2, 2, 2, 2, 4, 3, 3, 3, 3, 3, 5, 4, 4, 3, 3, 3, 2, 2, 2, 2, 1, 1, 4, 3, 3, 3, 3, 3, 2, 2, 2, 2, 1, 1, 2, 2, 2, 2, 1, 1, 5, 5, 5, 5, 5, 5, 3, 3, 3, 2, 1, 1, 4, 4, 4, 4, 4, 4, 5, 4, 4, 4, 4, 4, 1, 1, 1, 1, 1, 1, 3, 3, 3, 2, 2, 1, 1, 1, 1, 1, 1, 1, 4, 3, 3, 3, 3, 3, 1, 1, 1, 1, 1, 1, 3, 2, 2, 1, 1, 1, 1, 1, 1, 1, 1, 1, 3, 3, 3, 2, 2, 2, 3, 2, 2, 2, 2, 2, 3, 2, 2, 2, 1, 1, 4, 4, 4, 4, 4, 4, 5, 5, 5, 5, 5, 5, 3, 3, 2, 2, 1, 1, 4, 3, 3, 2, 2, 1, 5, 4, 4, 3, 3, 3, 5, 4, 3, 3, 3, 2, 1, 1, 1, 1, 1, 1, 3, 3, 3, 3, 3, 3, 4, 4, 3, 3, 2, 2, 4, 4, 4, 4, 4, 4, 1, 1, 1, 1, 1, 1, 5, 4, 4, 4, 4, 4, 3, 3, 3, 3, 3, 3, 4, 4, 4, 4, 4, 4, 5, 4, 4, 4, 4, 4, 3, 2, 2, 1, 1, 1, 2, 2, 2, 2, 1, 1, 5, 4, 3, 3, 3, 2, 5, 4, 4, 4, 4, 4, 3, 3, 2, 2, 1, 1, 4, 4, 3, 3, 3, 2, 3, 2, 2, 1, 1, 1, 5, 4, 4, 3, 2, 2, 3, 3, 3, 3, 2, 2, 4, 3, 2, 2, 2, 1, 2, 2, 2, 2, 2, 2, 3, 3, 3, 2, 2, 2, 1, 1, 1, 1, 1, 1, 2, 2, 2, 1, 1, 1
 |4, 4, 4, 4, 4, 4, 4, 3, 3, 3, 3, 3, 3, 3, 3, 3, 3, 3, 5, 4, 4, 3, 3, 3, 5, 5, 5, 5, 5, 5, 4, 3, 3, 3, 3, 3, 2, 1, 1, 1, 1, 1, 5, 4, 4, 3, 3, 3, 1, 1, 1, 1, 1, 1, 4, 3, 2, 2, 1, 1, 2, 2, 2, 2, 2, 2, 3, 2, 2, 1, 1, 1, 2, 2, 2, 2, 2, 2, 3, 2, 2, 1, 1, 1, 4, 3, 3, 3, 2, 1, 1, 1, 1, 1, 1, 1, 1, 1, 1, 1, 1, 1, 4, 3, 3, 3, 3, 3, 5, 5, 5, 5, 5, 5, 3, 3, 3, 2, 2, 2, 3, 2, 2, 2, 2, 2, 4, 4, 4, 4, 4, 4, 3, 3, 3, 3, 2, 2, 1, 1, 1, 1, 1, 1, 3, 3, 3, 2, 2, 2, 3, 2, 2, 1, 1, 1, 1, 1, 1, 1, 1, 1, 4, 4, 4, 3, 3, 3, 4, 4, 4, 3, 3, 3, 1, 1, 1, 1, 1, 1, 1, 1, 1, 1, 1, 1, 4, 3, 3, 3, 2, 2, 4, 3, 3, 2, 2, 1, 5, 5, 5, 5, 5, 5, 3, 3, 3, 3, 3, 3, 2, 2, 2, 2, 2, 2, 4, 4, 3, 3, 1, 1, 4, 4, 4, 3, 3, 3, 2, 1, 1, 1, 1, 1, 5, 4, 4, 4, 4, 4, 3, 3, 3, 3, 2, 2, 4, 4, 4, 3, 2, 2, 5, 4, 3, 3, 3, 2, 2, 2, 2, 2, 2, 2, 4, 3, 3, 3, 3, 3, 5, 3, 3, 3, 2, 1, 3, 3, 3, 2, 2, 2, 4, 4, 4, 3, 2, 2, 3, 3, 3, 2, 2, 1, 3, 3, 3, 3, 3, 3, 3, 3, 3, 3, 3, 3, 2, 2, 2, 2, 2, 2, 1, 1, 1, 1, 1, 1, 2, 1, 1, 1, 1, 1, 3, 2, 2, 2, 2, 2, 4, 4, 4, 4, 4, 4, 4, 3, 3, 3, 3, 3, 3, 3, 3, 3, 3, 3, 3, 3, 3, 3, 2, 2, 3, 3, 3, 3, 2, 2, 5, 4, 4, 3, 2, 2, 4, 4, 4, 4, 4, 4, 5, 4, 4, 3, 3, 3, 2, 2, 2, 2, 2, 2, 3, 2, 2, 1, 1, 1, 4, 4, 4, 4, 4, 4, 5, 4, 4, 4, 4, 4, 5, 4, 3, 3, 1, 1, 4, 4, 4, 4, 4, 4, 5, 4, 4, 4, 4, 4, 4, 3, 3, 3, 3, 3, 2, 1, 1, 1, 1, 1, 4, 3, 3, 3, 2, 2, 2, 2, 2, 1, 1, 1, 3, 2, 2, 2, 2, 2, 3, 3, 3, 3, 2, 2, 4, 3, 3, 2, 2, 1, 3, 2, 2, 2, 2, 2, 5, 4, 4, 4, 4, 4, 3, 3, 3, 2, 2, 2, 4, 4, 3, 3, 3, 2, 4, 4, 4, 4, 4, 4, 3, 3, 3, 2, 1, 1, 3, 2, 2, 2, 1, 1, 2, 2, 2, 2, 2, 2, 2, 2, 2, 2, 2, 2, 5, 4, 4, 4, 3, 3, 5, 5, 5, 5, 5, 5, 4, 3, 3, 2, 1, 1, 4, 4, 3, 2, 1, 1, 4, 4, 3, 2, 2, 1, 4, 3, 3, 3, 2, 2, 1, 1, 1, 1, 1, 1, 3, 3, 2, 2, 2, 1, 3, 3, 3, 3, 2, 2, 3, 3, 3, 3, 2, 2, 1, 1, 1, 1, 1, 1, 2, 2, 2, 2, 2, 2, 1, 1, 1, 1, 1, 1, 4, 4, 4, 4, 4, 4
 |3, 3, 2, 2, 1, 1, 2, 2, 2, 2, 2, 2, 3, 3, 3, 3, 3, 3, 5, 5, 5, 5, 5, 5, 4, 4, 4, 3, 2, 2, 5, 4, 4, 3, 3, 3, 5, 4, 3, 3, 3, 2, 5, 4, 3, 3, 1, 1, 4, 4, 4, 4, 4, 4, 3, 3, 3, 3, 3, 3, 4, 4, 3, 2, 1, 1, 4, 4, 4, 4, 4, 4, 3, 3, 2, 2, 1, 1, 1, 1, 1, 1, 1, 1, 3, 2, 2, 2, 2, 2, 4, 3, 3, 2, 2, 2, 3, 3, 2, 2, 1, 1, 3, 2, 2, 2, 2, 2, 4, 4, 4, 4, 4, 4, 4, 3, 3, 2, 1, 1, 3, 2, 2, 2, 2, 2, 2, 1, 1, 1, 1, 1, 3, 3, 3, 3, 3, 3, 5, 5, 5, 5, 5, 5, 3, 3, 3, 3, 3, 3, 2, 2, 2, 2, 1, 1, 4, 3, 3, 2, 2, 1, 5, 3, 3, 2, 2, 1, 3, 2, 2, 1, 1, 1, 1, 1, 1, 1, 1, 1, 5, 3, 3, 3, 2, 1, 4, 4, 4, 4, 4, 4, 4, 3, 3, 2, 1, 1, 5, 4, 4, 3, 2, 2, 3, 3, 3, 3, 3, 3, 4, 4, 3, 3, 2, 1, 3, 3, 3, 3, 3, 3, 4, 4, 3, 2, 1, 1, 2, 1, 1, 1, 1, 1, 2, 2, 2, 2, 2, 2, 5, 4, 4, 4, 3, 3, 1, 1, 1, 1, 1, 1, 3, 3, 3, 3, 3, 3, 4, 4, 4, 4, 4, 4, 3, 3, 3, 3, 3, 3, 2, 1, 1, 1, 1, 1, 1, 1, 1, 1, 1, 1, 5, 4, 4, 3, 3, 3, 3, 3, 3, 3, 2, 2, 1, 1, 1, 1, 1, 1, 1, 1, 1, 1, 1, 1, 4, 3, 3, 2, 2, 2, 2, 2, 2, 2, 1, 1, 3, 2, 2, 2, 1, 1, 5, 5, 5, 5, 5, 5, 3, 2, 2, 2, 2, 2, 3, 2, 2, 2, 2, 2, 2, 2, 2, 2, 2, 2, 5, 5, 5, 5, 5, 5, 4, 4, 4, 4, 3, 3, 3, 3, 3, 3, 3, 3, 4, 3, 3, 3, 1, 1, 4, 4, 4, 4, 4, 4, 2, 2, 2, 2, 1, 1, 1, 1, 1, 1, 1, 1, 2, 2, 2, 2, 2, 2, 3, 2, 2, 2, 2, 2, 2, 2, 2, 2, 2, 2, 1, 1, 1, 1, 1, 1, 3, 3, 3, 2, 2, 2, 2, 2, 2, 2, 2, 2, 1, 1, 1, 1, 1, 1, 3, 3, 3, 3, 2, 2, 4, 4, 4, 4, 4, 4, 5, 4, 4, 3, 3, 2, 5, 4, 4, 4, 4, 4, 4, 3, 2, 2, 1, 1, 2, 1, 1, 1, 1, 1, 3, 3, 3, 3, 3, 3, 2, 2, 2, 2, 1, 1, 5, 4, 3, 3, 2, 2, 4, 3, 3, 3, 3, 3, 4, 4, 4, 4, 4, 4, 5, 5, 5, 5, 5, 5, 2, 2, 2, 2, 2, 2, 4, 4, 3, 3, 2, 2, 4, 4, 4, 4, 4, 4, 4, 3, 3, 2, 2, 1, 1, 1, 1, 1, 1, 1, 3, 3, 3, 2, 2, 2, 1, 1, 1, 1, 1, 1, 3, 2, 2, 2, 2, 2, 2, 1, 1, 1, 1, 1, 3, 3, 2, 2, 1, 1, 5, 4, 3, 2, 2, 1, 1, 1, 1, 1, 1, 1, 2, 1, 1, 1, 1, 1, 5, 4, 4, 4, 4, 4, 4, 4, 4, 4, 4, 4, 4, 4, 4, 4, 4, 4
 |16, 13, 13, 10, 9, 8, 26, 21, 15, 14, 9, 6, 28, 28, 27, 25, 25, 24, 28, 27, 27, 27, 27, 27, 23, 23, 23, 23, 23, 23, 19, 18, 16, 12, 10, 8, 11, 10, 10, 10, 10, 10, 15, 14, 14, 14, 13, 12, 17, 13, 12, 10, 7, 6, 25, 23, 21, 19, 18, 15, 21, 17, 16, 15, 12, 11, 20, 20, 20, 20, 20, 20, 22, 18, 16, 12, 10, 7, 26, 25, 19, 14, 9, 5, 18, 16, 16, 14, 10, 9, 21, 18, 18, 14, 10, 10, 8, 8, 8, 8, 8, 8, 28, 25, 24, 22, 20, 18, 27, 24, 22, 20, 19, 17, 6, 5, 5, 4, 4, 3, 11, 10, 9, 8, 5, 4, 27, 25, 24, 21, 20, 20, 18, 18, 16, 14, 11, 11, 19, 16, 15, 10, 10, 6, 28, 24, 21, 18, 18, 14, 24, 19, 17, 17, 13, 13, 25, 24, 21, 20, 19, 17, 16, 15, 14, 14, 12, 11, 23, 22, 22, 20, 20, 19, 29, 24, 22, 21, 18, 16, 20, 18, 18, 16, 15, 15, 12, 11, 11, 10, 9, 9, 16, 15, 12, 10, 7, 6, 22, 19, 14, 14, 10, 7, 22, 20, 20, 19, 18, 18, 25, 18, 18, 12, 11, 4, 30, 24, 16, 11, 11, 2, 8, 7, 6, 5, 4, 3, 23, 22, 22, 21, 21, 21, 26, 23, 22, 17, 16, 10, 29, 26, 25, 23, 22, 20, 22, 20, 15, 14, 11, 9, 26, 22, 21, 18, 13, 12, 24, 23, 21, 21, 19, 18, 29, 29, 29, 29, 29, 29, 13, 12, 11, 11, 10, 10, 17, 16, 15, 12, 8, 7, 26, 22, 15, 14, 9, 3, 21, 20, 16, 15, 11, 7, 18, 13, 13, 8, 4, 3, 6, 5, 5, 4, 4, 4, 16, 16, 16, 15, 14, 14, 26, 20, 20, 15, 9, 4, 27, 24, 23, 21, 20, 18, 14, 12, 10, 9, 8, 7, 17, 15, 15, 15, 14, 13, 20, 20, 19, 17, 16, 15, 24, 20, 18, 16, 12, 8, 19, 18, 18, 17, 17, 17, 25, 22, 17, 13, 10, 7, 27, 24, 20, 16, 12, 12, 19, 18, 16, 16, 14, 13, 25, 20, 19, 11, 10, 5, 27, 24, 23, 20, 18, 17, 25, 24, 17, 13, 10, 7, 27, 27, 27, 27, 26, 26, 25, 24, 23, 20, 18, 17, 18, 18, 15, 13, 10, 10, 20, 18, 16, 14, 10, 7, 13, 12, 12, 12, 12, 12, 23, 21, 20, 19, 17, 16, 22, 17, 15, 13, 12, 9, 19, 14, 14, 12, 9, 7, 9, 7, 6, 5, 4, 4, 23, 21, 21, 20, 19, 19, 11, 9, 9, 8, 5, 5, 29, 28, 26, 25, 24, 24, 10, 9, 8, 7, 6, 6, 17, 16, 14, 11, 8, 7, 11, 11, 9, 9, 7, 7, 23, 19, 18, 16, 15, 14, 26, 21, 17, 16, 10, 8, 22, 22, 22, 22, 21, 21, 19, 17, 15, 14, 12, 11, 17, 14, 11, 10, 8, 6, 12, 11, 10, 8, 8, 7, 22, 21, 18, 15, 14, 13, 15, 13, 12, 10, 9, 8, 27, 23, 20, 13, 9, 6, 14, 14, 14, 13, 13, 13, 16, 15, 15, 15, 13, 13, 26, 21, 17, 11, 7, 1, 20, 19, 18, 18, 17, 15, 8, 7, 7, 7, 7, 7, 5, 5, 4, 4, 4, 3, 19, 15, 13, 12, 10, 7, 20, 18, 18, 16, 16, 14, 28, 28, 26, 24, 22, 21, 13, 10, 10, 7, 7, 4, 15, 14, 10, 9, 6, 4
 |15, 13, 11, 11, 8, 8, 25, 24, 20, 20, 18, 13, 29, 25, 23, 23, 20, 18, 9, 9, 8, 9, 8, 7, 24, 21, 20, 16, 15, 14, 25, 24, 23, 19, 16, 13, 11, 10, 9, 8, 7, 7, 24, 24, 24, 24, 24, 24, 27, 26, 26, 25, 24, 22, 19, 18, 17, 16, 15, 15, 7, 6, 6, 6, 5, 5, 27, 26, 25, 25, 25, 25, 28, 26, 23, 22, 20, 18, 12, 12, 9, 8, 6, 5, 24, 22, 14, 12, 6, 6, 23, 21, 19, 15, 15, 11, 19, 18, 18, 17, 14, 13, 24, 23, 22, 22, 20, 20, 30, 29, 29, 28, 28, 28, 30, 25, 24, 22, 17, 16, 26, 25, 21, 17, 16, 14, 23, 20, 14, 11, 9, 8, 28, 26, 20, 20, 14, 12, 22, 20, 17, 16, 13, 13, 26, 26, 26, 25, 24, 25, 29, 27, 24, 23, 22, 19, 7, 5, 5, 4, 3, 3, 8, 8, 8, 8, 8, 8, 12, 10, 7, 6, 3, 2, 24, 21, 18, 16, 16, 12, 26, 22, 20, 18, 16, 15, 8, 7, 6, 6, 5, 3, 11, 11, 11, 10, 10, 10, 16, 15, 12, 8, 8, 5, 12, 10, 9, 7, 5, 3, 28, 25, 19, 17, 16, 10, 19, 16, 15, 14, 14, 13, 19, 19, 15, 13, 10, 6, 18, 16, 15, 14, 13, 12, 24, 19, 13, 13, 5, 5, 8, 5, 5, 3, 3, 2, 8, 8, 8, 8, 7, 7, 16, 15, 11, 8, 5, 3, 29, 27, 22, 20, 17, 15, 9, 7, 7, 6, 6, 5, 2, 2, 2, 1, 2, 2, 25, 24, 20, 18, 15, 11, 29, 27, 25, 24, 24, 22, 21, 19, 18, 17, 16, 14, 17, 15, 14, 12, 9, 9, 30, 24, 19, 19, 12, 11, 22, 18, 14, 11, 11, 8, 12, 10, 9, 8, 7, 6, 29, 25, 21, 17, 14, 10, 11, 11, 11, 11, 11, 11, 18, 17, 15, 13, 9, 9, 27, 26, 23, 22, 20, 19, 23, 18, 15, 13, 12, 8, 19, 17, 14, 14, 10, 8, 15, 14, 12, 12, 10, 10, 14, 12, 9, 8, 4, 3, 18, 15, 12, 8, 8, 3, 24, 22, 17, 12, 11, 5, 22, 22, 19, 18, 16, 14, 27, 26, 22, 22, 18, 18, 22, 21, 20, 19, 19, 18, 18, 17, 12, 11, 5, 2, 10, 9, 8, 4, 4, 2, 18, 15, 13, 12, 10, 9, 17, 15, 15, 13, 10, 8, 8, 6, 6, 6, 4, 4, 25, 23, 23, 20, 17, 15, 16, 15, 13, 12, 11, 11, 8, 6, 4, 3, 3, 2, 14, 11, 9, 7, 6, 3, 16, 16, 13, 12, 8, 6, 25, 20, 16, 13, 8, 3, 13, 12, 10, 9, 7, 5, 25, 19, 19, 14, 11, 8, 19, 16, 14, 13, 13, 11, 26, 22, 17, 14, 12, 9, 13, 12, 8, 6, 6, 2, 14, 12, 11, 7, 7, 3, 9, 8, 8, 7, 7, 7, 28, 24, 24, 23, 19, 18, 27, 25, 20, 17, 17, 13, 19, 18, 18, 16, 14, 14, 11, 11, 9, 9, 7, 7, 23, 18, 15, 12, 9, 5, 8, 7, 6, 5, 5, 4, 7, 7, 7, 6, 6, 6, 21, 19, 13, 12, 6, 3, 13, 10, 9, 7, 5, 3, 26, 22, 18, 13, 8, 1, 23, 22, 21, 20, 19, 19, 22, 19, 19, 16, 15, 12, 23, 18, 15, 9, 7, 2, 29, 27, 25, 24, 22, 20, 22, 22, 20, 18, 17, 16, 12, 8, 7, 5, 5, 2|];